2
1000 6
221
16 1 3
17 1 2
18 1 4
19 1 1
20 1 2
21 1 2
22 1 2
23 1 2
24 1 3
25 1 1
26 1 2
27 1 1
28 1 2
29 1 1
31 1 1
32 1 2
33 1 3
35 1 1
37 1 2
38 1 1
39 1 4
40 1 2
41 1 2
42 1 5
43 1 2
45 1 1
47 1 3
48 1 1
49 1 6
51 1 1
52 1 3
53 1 4
54 1 3
55 1 4
56 1 2
57 1 1
58 1 4
59 1 3
60 1 2
61 1 1
62 1 3
63 1 2
64 1 1
66 1 4
68 1 4
69 1 3
71 1 1
73 1 1
74 1 2
75 1 1
76 1 3
77 1 1
78 1 4
79 1 2
80 1 2
81 1 2
82 1 3
83 1 1
84 1 1
85 1 1
87 1 5
88 1 2
89 1 3
90 1 4
91 1 4
92 1 1
93 1 1
94 1 1
96 1 3
98 1 2
99 1 2
100 1 3
101 1 4
102 1 4
103 1 3
104 1 1
105 1 4
106 1 1
107 1 4
109 1 2
110 1 2
111 1 2
112 1 2
113 1 1
114 1 3
115 1 2
116 1 3
117 1 5
118 1 1
119 1 3
120 1 4
121 1 1
122 1 3
123 1 1
124 1 2
125 1 1
126 1 1
127 1 2
128 1 1
129 1 3
130 1 4
131 1 4
133 1 2
135 1 2
136 1 3
137 1 2
138 1 1
139 1 1
140 1 2
141 1 2
142 1 2
143 1 4
144 1 1
146 1 3
147 1 5
149 1 3
150 1 2
151 1 1
152 1 1
153 1 2
154 1 2
155 1 2
156 1 2
157 1 1
158 1 2
159 1 4
160 1 2
161 1 2
163 1 2
164 1 1
165 1 4
167 1 1
168 1 1
169 1 3
170 1 2
171 1 1
172 1 3
173 1 4
174 1 1
175 1 2
176 1 2
177 1 1
178 1 1
179 1 4
180 1 2
181 1 2
182 1 2
183 1 1
184 1 1
185 1 2
186 1 1
187 1 1
188 1 3
189 1 2
190 1 1
191 1 1
192 1 2
193 1 3
194 1 2
195 1 2
196 1 1
197 1 1
198 1 6
199 1 2
200 1 2
201 1 6
202 1 1
203 1 3
204 1 3
205 1 3
207 1 1
208 1 1
209 1 5
210 1 2
212 1 1
214 1 2
215 1 3
217 1 3
218 1 3
219 1 3
220 1 4
221 1 6
223 1 1
225 1 2
226 1 3
227 1 4
228 1 2
229 1 3
230 1 1
232 1 2
233 1 1
234 1 2
235 1 3
237 1 2
238 1 1
239 1 1
240 1 1
241 1 2
242 1 5
243 1 1
244 1 4
245 1 2
246 1 4
247 1 1
248 1 2
249 1 1
250 1 2
251 1 1
252 1 2
253 1 3
254 1 2
255 1 1
256 1 2
257 1 1
258 1 1
259 1 2
261 1 5
262 1 2
263 1 3
265 1 2
266 1 2
